p cnf 469 882
a 362 387 372 358 381 365 378 375 399 405 58 62 77 67 81 54 49 92 34 96 412 422 418 408 325 336 266 262 270 280 302 340 288 274 21 25 45 16 41 30 12 1 6 392 354 321 310 306 315 330 348 344 396 223 250 219 205 215 211 201 185 195 191 50 7 26 2 3 17 63 8 227 231 246 235 299 295 239 254 284 258 123 104 127 137 100 141 85 71 108 112 152 177 167 156 117 131 145 181 160 171 0
d 345 299 254 0
d 326 26 17 0
d 255 50 2 0
d 453 405 396 0
d 349 344 0
d 383 378 375 0
d 388 362 372 0
e 4 5 9 10 11 13 14 15 18 19 20 22 23 24 27 28 29 31 32 33 35 36 37 38 39 40 42 43 44 46 47 48 51 52 53 55 56 57 59 60 61 64 65 66 68 69 70 72 73 74 75 76 78 79 80 82 83 84 86 87 88 89 90 91 93 94 95 97 98 99 101 102 103 105 106 107 109 110 111 113 114 115 116 118 119 120 121 122 124 125 126 128 129 130 132 133 134 135 136 138 139 140 142 143 144 146 147 148 149 150 151 153 154 155 157 158 159 161 162 163 164 165 166 168 169 170 172 173 174 175 176 178 179 180 182 183 184 186 187 188 189 190 192 193 194 196 197 198 199 200 202 203 204 206 207 208 209 210 212 213 214 216 217 218 220 221 222 224 225 226 228 229 230 232 233 234 236 237 238 240 241 242 243 244 245 247 248 249 251 252 253 256 257 259 260 261 263 264 265 267 268 269 271 272 273 275 276 277 278 279 281 282 283 285 286 287 289 290 291 292 293 294 296 297 298 300 301 303 304 305 307 308 309 311 312 313 314 316 317 318 319 320 322 323 324 327 328 329 331 332 333 334 335 337 338 339 341 342 343 346 347 350 351 352 353 355 356 357 359 360 361 363 364 366 367 368 369 370 371 373 374 376 377 379 380 382 384 385 386 389 390 391 393 394 395 397 398 400 401 402 403 404 406 407 409 410 411 413 414 415 416 417 419 420 421 423 424 425 426 427 428 429 430 431 432 433 434 435 436 437 438 439 440 441 442 443 444 445 446 447 448 449 450 451 452 454 455 456 457 458 459 460 461 462 463 464 465 466 467 468 469 0
469 0
-469 427 468 0
-427 421 -426 0
-421 417 -420 0
-417 411 -416 0
-411 407 -410 0
-407 404 -406 0
-404 398 -403 0
-398 395 -397 0
-395 391 -394 0
-391 386 -390 0
-386 380 -385 0
-380 377 -379 0
-377 374 -376 0
-374 371 -373 0
-371 364 -370 0
-364 361 -363 0
-361 357 -360 0
-357 353 -356 0
-353 347 -352 0
-347 343 -346 0
-343 339 -342 0
-339 335 -338 0
-335 329 -334 0
-329 324 -328 0
-324 320 -323 0
-320 314 -319 0
-314 309 -313 0
-309 305 -308 0
-305 301 -304 0
-301 298 -300 0
-298 294 -297 0
-294 287 -293 0
-287 283 -286 0
-283 279 -282 0
-279 273 -278 0
-273 269 -272 0
-269 265 -268 0
-265 261 -264 0
-261 257 -260 0
-257 253 -256 0
-253 249 -252 0
-249 245 -248 0
-245 238 -244 0
-238 234 -237 0
-234 230 -233 0
-230 226 -229 0
-226 222 -225 0
-222 218 -221 0
-218 214 -217 0
-214 210 -213 0
-210 204 -209 0
-204 200 -203 0
-200 194 -199 0
-194 190 -193 0
-190 184 -189 0
-184 180 -183 0
-180 176 -179 0
-176 170 -175 0
-170 166 -169 0
-166 159 -165 0
-159 155 -158 0
-155 151 -154 0
-151 144 -150 0
-144 140 -143 0
-140 136 -139 0
-136 130 -135 0
-130 126 -129 0
-126 122 -125 0
-122 116 -121 0
-116 111 -115 0
-111 107 -110 0
-107 103 -106 0
-103 99 -102 0
-99 95 -98 0
-95 91 -94 0
-91 84 -90 0
-84 80 -83 0
-80 76 -79 0
-76 70 -75 0
-70 66 -69 0
-66 61 -65 0
-61 57 -60 0
-57 53 -56 0
-53 48 -52 0
-48 44 -47 0
-44 40 -43 0
-40 33 -39 0
-33 29 -32 0
-29 24 -28 0
-24 20 -23 0
-20 15 -19 0
-15 11 -14 0
-11 -5 -10 0
1 4 5 0
-1 -4 5 0
-2 -3 4 0
-4 2 0
-4 3 0
6 9 10 0
-6 -9 10 0
-7 -8 9 0
-9 7 0
-9 8 0
12 -13 14 0
-12 13 14 0
-13 -1 6 0
-13 1 -6 0
1 6 13 0
-1 -6 13 0
16 18 19 0
-16 -18 19 0
-2 -17 18 0
-18 2 0
-18 17 0
21 22 23 0
-21 -22 23 0
-7 -3 22 0
-22 7 0
-22 3 0
25 27 28 0
-25 -27 28 0
-26 -8 27 0
-27 26 0
-27 8 0
30 -31 32 0
-30 31 32 0
-31 -21 25 0
-31 21 -25 0
21 25 31 0
-21 -25 31 0
34 38 39 0
-34 -38 39 0
-36 37 38 0
36 -37 38 0
-36 -37 38 0
-12 -35 36 0
-2 2 35 0
-1 -6 37 0
-38 36 37 0
-36 12 0
-36 35 0
-35 2 0
-35 -2 0
-37 1 0
-37 6 0
41 -42 43 0
-41 42 43 0
-42 -30 34 0
-42 30 -34 0
30 34 42 0
-30 -34 42 0
45 -46 47 0
-45 46 47 0
-46 -16 41 0
-46 16 -41 0
16 41 46 0
-16 -41 46 0
49 51 52 0
-49 -51 52 0
-2 -50 51 0
-51 2 0
-51 50 0
54 55 56 0
-54 -55 56 0
-7 -17 55 0
-55 7 0
-55 17 0
58 59 60 0
-58 -59 60 0
-26 -3 59 0
-59 26 0
-59 3 0
62 64 65 0
-62 -64 65 0
-63 -8 64 0
-64 63 0
-64 8 0
67 -68 69 0
-67 68 69 0
-68 -58 62 0
-68 58 -62 0
58 62 68 0
-58 -62 68 0
71 74 75 0
-71 -74 75 0
-72 73 74 0
72 -73 74 0
-72 -73 74 0
-30 -34 72 0
-21 -25 73 0
-74 72 73 0
-72 30 0
-72 34 0
-73 21 0
-73 25 0
77 -78 79 0
-77 78 79 0
-78 -67 71 0
-78 67 -71 0
67 71 78 0
-67 -71 78 0
81 -82 83 0
-81 82 83 0
-82 -54 77 0
-82 54 -77 0
54 77 82 0
-54 -77 82 0
85 89 90 0
-85 -89 90 0
-87 88 89 0
87 -88 89 0
-87 -88 89 0
-45 -86 87 0
-2 2 86 0
-16 -41 88 0
-89 87 88 0
-87 45 0
-87 86 0
-86 2 0
-86 -2 0
-88 16 0
-88 41 0
92 -93 94 0
-92 93 94 0
-93 -81 85 0
-93 81 -85 0
81 85 93 0
-81 -85 93 0
96 -97 98 0
-96 97 98 0
-97 -49 92 0
-97 49 -92 0
49 92 97 0
-49 -92 97 0
100 101 102 0
-100 -101 102 0
-7 -50 101 0
-101 7 0
-101 50 0
104 105 106 0
-104 -105 106 0
-26 -17 105 0
-105 26 0
-105 17 0
108 109 110 0
-108 -109 110 0
-63 -3 109 0
-109 63 0
-109 3 0
112 -114 115 0
-112 114 115 0
-114 -108 113 0
-114 108 -113 0
-113 2 0
-113 -2 0
-2 2 113 0
108 113 114 0
-108 -113 114 0
-2 2 113 0
-113 2 0
-113 -2 0
117 120 121 0
-117 -120 121 0
-118 119 120 0
118 -119 120 0
-118 -119 120 0
-67 -71 118 0
-58 -62 119 0
-120 118 119 0
-118 67 0
-118 71 0
-119 58 0
-119 62 0
123 -124 125 0
-123 124 125 0
-124 -112 117 0
-124 112 -117 0
112 117 124 0
-112 -117 124 0
127 -128 129 0
-127 128 129 0
-128 -104 123 0
-128 104 -123 0
104 123 128 0
-104 -123 128 0
131 134 135 0
-131 -134 135 0
-132 133 134 0
132 -133 134 0
-132 -133 134 0
-81 -85 132 0
-54 -77 133 0
-134 132 133 0
-132 81 0
-132 85 0
-133 54 0
-133 77 0
137 -138 139 0
-137 138 139 0
-138 -127 131 0
-138 127 -131 0
127 131 138 0
-127 -131 138 0
141 -142 143 0
-141 142 143 0
-142 -100 137 0
-142 100 -137 0
100 137 142 0
-100 -137 142 0
145 149 150 0
-145 -149 150 0
-147 148 149 0
147 -148 149 0
-147 -148 149 0
-96 -146 147 0
-2 2 146 0
-49 -92 148 0
-149 147 148 0
-147 96 0
-147 146 0
-146 2 0
-146 -2 0
-148 49 0
-148 92 0
152 153 154 0
-152 -153 154 0
-26 -50 153 0
-153 26 0
-153 50 0
156 157 158 0
-156 -157 158 0
-63 -17 157 0
-157 63 0
-157 17 0
160 164 165 0
-160 -164 165 0
-161 163 164 0
161 -163 164 0
-161 -163 164 0
-112 -117 161 0
-108 -162 163 0
-2 2 162 0
-164 161 163 0
-161 112 0
-161 117 0
-163 108 0
-163 162 0
-162 2 0
-162 -2 0
167 -168 169 0
-167 168 169 0
-168 -156 160 0
-168 156 -160 0
156 160 168 0
-156 -160 168 0
171 174 175 0
-171 -174 175 0
-172 173 174 0
172 -173 174 0
-172 -173 174 0
-127 -131 172 0
-104 -123 173 0
-174 172 173 0
-172 127 0
-172 131 0
-173 104 0
-173 123 0
177 -178 179 0
-177 178 179 0
-178 -167 171 0
-178 167 -171 0
167 171 178 0
-167 -171 178 0
181 -182 183 0
-181 182 183 0
-182 -152 177 0
-182 152 -177 0
152 177 182 0
-152 -177 182 0
185 188 189 0
-185 -188 189 0
-186 187 188 0
186 -187 188 0
-186 -187 188 0
-141 -145 186 0
-100 -137 187 0
-188 186 187 0
-186 141 0
-186 145 0
-187 100 0
-187 137 0
191 192 193 0
-191 -192 193 0
-63 -50 192 0
-192 63 0
-192 50 0
195 198 199 0
-195 -198 199 0
-196 197 198 0
196 -197 198 0
-196 -197 198 0
-167 -171 196 0
-156 -160 197 0
-198 196 197 0
-196 167 0
-196 171 0
-197 156 0
-197 160 0
201 -202 203 0
-201 202 203 0
-202 -191 195 0
-202 191 -195 0
191 195 202 0
-191 -195 202 0
205 208 209 0
-205 -208 209 0
-206 207 208 0
206 -207 208 0
-206 -207 208 0
-181 -185 206 0
-152 -177 207 0
-208 206 207 0
-206 181 0
-206 185 0
-207 152 0
-207 177 0
211 212 213 0
-211 -212 213 0
-2 -3 212 0
-212 2 0
-212 3 0
215 216 217 0
-215 -216 217 0
-7 -8 216 0
-216 7 0
-216 8 0
219 -220 221 0
-219 220 221 0
-220 -211 215 0
-220 211 -215 0
211 215 220 0
-211 -215 220 0
223 224 225 0
-223 -224 225 0
-2 -17 224 0
-224 2 0
-224 17 0
227 228 229 0
-227 -228 229 0
-7 -3 228 0
-228 7 0
-228 3 0
231 232 233 0
-231 -232 233 0
-26 -8 232 0
-232 26 0
-232 8 0
235 -236 237 0
-235 236 237 0
-236 -227 231 0
-236 227 -231 0
227 231 236 0
-227 -231 236 0
239 243 244 0
-239 -243 244 0
-241 242 243 0
241 -242 243 0
-241 -242 243 0
-219 -240 241 0
-2 2 240 0
-211 -215 242 0
-243 241 242 0
-241 219 0
-241 240 0
-240 2 0
-240 -2 0
-242 211 0
-242 215 0
246 -247 248 0
-246 247 248 0
-247 -235 239 0
-247 235 -239 0
235 239 247 0
-235 -239 247 0
250 -251 252 0
-250 251 252 0
-251 -223 246 0
-251 223 -246 0
223 246 251 0
-223 -246 251 0
254 255 256 0
-254 -255 256 0
258 259 260 0
-258 -259 260 0
-7 -17 259 0
-259 7 0
-259 17 0
262 263 264 0
-262 -263 264 0
-26 -3 263 0
-263 26 0
-263 3 0
266 267 268 0
-266 -267 268 0
-63 -8 267 0
-267 63 0
-267 8 0
270 -271 272 0
-270 271 272 0
-271 -262 266 0
-271 262 -266 0
262 266 271 0
-262 -266 271 0
274 277 278 0
-274 -277 278 0
-275 276 277 0
275 -276 277 0
-275 -276 277 0
-235 -239 275 0
-227 -231 276 0
-277 275 276 0
-275 235 0
-275 239 0
-276 227 0
-276 231 0
280 -281 282 0
-280 281 282 0
-281 270 0
-281 274 0
-270 -274 281 0
284 -285 286 0
-284 285 286 0
-285 -258 280 0
-285 258 -280 0
258 280 285 0
-258 -280 285 0
288 292 293 0
-288 -292 293 0
-290 291 292 0
290 -291 292 0
-290 -291 292 0
-250 -289 290 0
-2 2 289 0
-223 -246 291 0
-292 290 291 0
-290 250 0
-290 289 0
-289 2 0
-289 -2 0
-291 223 0
-291 246 0
295 -296 297 0
-295 296 297 0
-296 -284 288 0
-296 284 -288 0
284 288 296 0
-284 -288 296 0
299 295 300 0
-299 -295 300 0
302 303 304 0
-302 -303 304 0
-7 -50 303 0
-303 7 0
-303 50 0
306 307 308 0
-306 -307 308 0
-63 -3 307 0
-307 63 0
-307 3 0
310 -312 313 0
-310 312 313 0
-312 -306 311 0
-312 306 -311 0
-311 2 0
-311 -2 0
-2 2 311 0
306 311 312 0
-306 -311 312 0
-2 2 311 0
-311 2 0
-311 -2 0
315 318 319 0
-315 -318 319 0
-316 317 318 0
316 -317 318 0
-316 -317 318 0
-270 -274 316 0
-262 -266 317 0
-318 316 317 0
-316 270 0
-316 274 0
-317 262 0
-317 266 0
321 -322 323 0
-321 322 323 0
-322 -310 315 0
-322 310 -315 0
310 315 322 0
-310 -315 322 0
325 -327 328 0
-325 327 328 0
-327 -326 321 0
-327 326 -321 0
326 321 327 0
-326 -321 327 0
330 333 334 0
-330 -333 334 0
-331 332 333 0
331 -332 333 0
-331 -332 333 0
-284 -288 331 0
-258 -280 332 0
-333 331 332 0
-331 284 0
-331 288 0
-332 258 0
-332 280 0
336 -337 338 0
-336 337 338 0
-337 -325 330 0
-337 325 -330 0
325 330 337 0
-325 -330 337 0
340 -341 342 0
-340 341 342 0
-341 -302 336 0
-341 302 -336 0
302 336 341 0
-302 -336 341 0
344 345 346 0
-344 -345 346 0
348 351 352 0
-348 -351 352 0
-349 350 351 0
349 -350 351 0
-349 -350 351 0
-255 -295 350 0
-351 349 350 0
-350 255 0
-350 295 0
354 355 356 0
-354 -355 356 0
-26 -50 355 0
-355 26 0
-355 50 0
358 359 360 0
-358 -359 360 0
-63 -17 359 0
-359 63 0
-359 17 0
362 358 363 0
-362 -358 363 0
365 369 370 0
-365 -369 370 0
-366 368 369 0
366 -368 369 0
-366 -368 369 0
-310 -315 366 0
-306 -367 368 0
-2 2 367 0
-369 366 368 0
-366 310 0
-366 315 0
-368 306 0
-368 367 0
-367 2 0
-367 -2 0
372 365 373 0
-372 -365 373 0
375 326 376 0
-375 -326 376 0
378 321 379 0
-378 -321 379 0
381 384 385 0
-381 -384 385 0
-382 383 384 0
382 -383 384 0
-382 -383 384 0
-325 -330 382 0
-384 382 383 0
-382 325 0
-382 330 0
387 -389 390 0
-387 389 390 0
-389 -388 381 0
-389 388 -381 0
388 381 389 0
-388 -381 389 0
392 -393 394 0
-392 393 394 0
-393 -354 387 0
-393 354 -387 0
354 387 393 0
-354 -387 393 0
396 392 397 0
-396 -392 397 0
399 402 403 0
-399 -402 403 0
-400 401 402 0
400 -401 402 0
-400 -401 402 0
-340 -348 400 0
-302 -336 401 0
-402 400 401 0
-400 340 0
-400 348 0
-401 302 0
-401 336 0
405 399 406 0
-405 -399 406 0
408 409 410 0
-408 -409 410 0
-63 -50 409 0
-409 63 0
-409 50 0
412 415 416 0
-412 -415 416 0
-413 414 415 0
413 -414 415 0
-413 -414 415 0
-388 -381 413 0
-358 -365 414 0
-415 413 414 0
-413 388 0
-413 381 0
-414 358 0
-414 365 0
418 -419 420 0
-418 419 420 0
-419 -408 412 0
-419 408 -412 0
408 412 419 0
-408 -412 419 0
422 425 426 0
-422 -425 426 0
-423 424 425 0
423 -424 425 0
-423 -424 425 0
-392 -399 423 0
-354 -387 424 0
-425 423 424 0
-423 392 0
-423 399 0
-424 354 0
-424 387 0
-468 460 0
-468 467 0
-460 456 0
-460 459 0
-456 452 0
-456 455 0
-452 448 0
-452 451 0
-448 442 0
-448 447 0
-442 436 0
-442 441 0
-436 430 0
-436 435 0
-430 -428 429 0
-430 428 -429 0
-428 2 0
-428 8 0
-429 2 0
-429 8 0
-2 -8 428 0
-2 -8 429 0
-435 432 -434 0
-435 -432 434 0
219 431 432 0
-219 -431 432 0
-2 2 431 0
-431 2 0
-431 -2 0
12 433 434 0
-12 -433 434 0
-2 2 433 0
-433 2 0
-433 -2 0
-432 -219 431 0
-432 219 -431 0
-431 2 0
-431 -2 0
-2 2 431 0
-434 -12 433 0
-434 12 -433 0
-433 2 0
-433 -2 0
-2 2 433 0
-441 438 -440 0
-441 -438 440 0
250 437 438 0
-250 -437 438 0
-2 2 437 0
-437 2 0
-437 -2 0
45 439 440 0
-45 -439 440 0
-2 2 439 0
-439 2 0
-439 -2 0
-438 -250 437 0
-438 250 -437 0
-437 2 0
-437 -2 0
-2 2 437 0
-440 -45 439 0
-440 45 -439 0
-439 2 0
-439 -2 0
-2 2 439 0
-447 444 -446 0
-447 -444 446 0
345 443 444 0
-345 -443 444 0
-2 2 443 0
-443 2 0
-443 -2 0
96 445 446 0
-96 -445 446 0
-2 2 445 0
-445 2 0
-445 -2 0
-444 -345 443 0
-444 345 -443 0
-443 2 0
-443 -2 0
-2 2 443 0
-446 -96 445 0
-446 96 -445 0
-445 2 0
-445 -2 0
-2 2 445 0
-451 449 -450 0
-451 -449 450 0
340 348 449 0
-340 -348 449 0
141 145 450 0
-141 -145 450 0
-449 -340 348 0
-449 340 -348 0
-450 -141 145 0
-450 141 -145 0
-455 -453 -454 0
-455 453 454 0
181 185 454 0
-181 -185 454 0
-454 -181 185 0
-454 181 -185 0
-459 457 -458 0
-459 -457 458 0
418 422 457 0
-418 -422 457 0
201 205 458 0
-201 -205 458 0
-457 -418 422 0
-457 418 -422 0
-458 -201 205 0
-458 201 -205 0
-467 -463 466 0
-467 463 -466 0
-463 461 462 0
-461 418 0
-461 422 0
-462 408 0
-462 412 0
-466 464 465 0
-464 201 0
-464 205 0
-465 191 0
-465 195 0
-461 462 463 0
461 -462 463 0
-461 -462 463 0
-418 -422 461 0
-408 -412 462 0
-464 465 466 0
464 -465 466 0
-464 -465 466 0
-201 -205 464 0
-191 -195 465 0

